% Logging successfully configured
=====UNKNOWN=====
% time elapsed: 1800.04 s
%%%mzn-stat: initTime=0.035640218
%%%mzn-stat: nodes=5930315
%%%mzn-stat: restarts=0
%%%mzn-stat: peakDepth=125
%%%mzn-stat: solveTime=1799.720872261
%%%mzn-stat: variables=2307
%%%mzn-stat: propagators=1943
%%%mzn-stat: failures=1323820
%%%mzn-stat: propagations=69072079
%%%mzn-stat: nogoods=1323820
%%%mzn-stat: numAtomicConstraintsPropagated=0
%%%mzn-stat: allDifferentNumber1TotalHallSetSize=3102990
%%%mzn-stat: allDifferentNumber1NumberOfConflicts=395667
%%%mzn-stat: allDifferentNumber1MaxHallSetSize=93
%%%mzn-stat: allDifferentNumber1PropagationsTotal=10538643
%%%mzn-stat: allDifferentNumber1PropagationsThatFoundConflict=395667
%%%mzn-stat: circuitNumber2PropagationsThatFoundConflict=887303
%%%mzn-stat: circuitNumber2TotalFixedEdgesAtConflict=111648801
%%%mzn-stat: circuitNumber2NumberOfConflicts=887303
%%%mzn-stat: circuitNumber2PropagationsThatPruned=1083453
%%%mzn-stat: circuitNumber2PropagationsTotal=8077489
%%%mzn-stat: AverageConflictSize=28.15446888549803
%%%mzn-stat: NumUnitNogoodsLearned=0
%%%mzn-stat: AverageLearnedNogoodLength=41.88158510975813
%%%mzn-stat: AverageBacktrackAmount=0
%%%mzn-stat: AverageLbd=31.21673565892644
%%%mzn-stat: 2AutonomousSearchNumBackupCalled=0
%%%mzn-stat: 2AutonomousSearchNumPredicatesRemoved=0
%%%mzn-stat: 2AutonomousSearchNumCalls=0
%%%mzn-stat: 2AutonomousSearchNumPredicatesAdded=3390
%%%mzn-stat: 2AutonomousSearchAverageSizeOfHeap=0
%%%mzn-stat: 2AutonomousSearchNumAssignedPredicatesEncountered=0
%%%mzn-stat-end
